This is Ipopt version 3.14.14, running with linear solver MUMPS 5.6.2.

Number of nonzeros in equality constraint Jacobian...:  2399894
Number of nonzeros in inequality constraint Jacobian.:        0
Number of nonzeros in Lagrangian Hessian.............:  1887941

Total number of variables............................:   703978
                     variables with only lower bounds:        0
                variables with lower and upper bounds:        0
                     variables with only upper bounds:        0
Total number of equality constraints.................:   639978
Total number of inequality constraints...............:        0
        inequality constraints with only lower bounds:        0
   inequality constraints with lower and upper bounds:        0
        inequality constraints with only upper bounds:        0

iter    objective    inf_pr   inf_du lg(mu)  ||d||  lg(rg) alpha_du alpha_pr  ls
   0  2.3000000e+02 9.80e+00 7.50e-03  -1.0 0.00e+00    -  0.00e+00 0.00e+00   0
   1  7.1866785e+02 1.78e-15 4.25e+01  -1.0 1.02e+01    -  1.00e+00 1.00e+00h  1
   2  7.1762411e+02 5.02e-07 2.38e-02  -1.0 6.89e-03   0.0 1.00e+00 1.00e+00f  1
   3  5.6871478e+02 4.98e-02 3.46e-03  -3.8 1.99e+00    -  1.00e+00 1.00e+00f  1
   4  5.6875641e+02 5.90e-03 4.89e-05  -3.8 3.70e-01    -  1.00e+00 1.00e+00h  1
   5  5.6875699e+02 3.95e-07 1.30e-08  -3.8 6.33e-03    -  1.00e+00 1.00e+00h  1
   6  5.6875699e+02 3.40e-13 3.68e-15  -8.6 2.17e-06    -  1.00e+00 1.00e+00h  1

Number of Iterations....: 6

                                   (scaled)                 (unscaled)
Objective...............:   5.6875699053304174e+02    5.6875699053304174e+02
Dual infeasibility......:   3.6762043062465999e-15    3.6762043062465999e-15
Constraint violation....:   3.3961722323283539e-13    3.3961722323283539e-13
Variable bound violation:   0.0000000000000000e+00    0.0000000000000000e+00
Complementarity.........:   0.0000000000000000e+00    0.0000000000000000e+00
Overall NLP error.......:   3.3961722323283539e-13    3.3961722323283539e-13


Number of objective function evaluations             = 7
Number of objective gradient evaluations             = 7
Number of equality constraint evaluations            = 7
Number of inequality constraint evaluations          = 0
Number of equality constraint Jacobian evaluations   = 7
Number of inequality constraint Jacobian evaluations = 0
Number of Lagrangian Hessian evaluations             = 6
Total seconds in IPOPT (w/o function evaluations)    =     22.279
Total seconds in NLP function evaluations            =      6.301


Timing Statistics:

OverallAlgorithm....................:     52.845 (sys:     33.926 wall:     28.580)
 PrintProblemStatistics.............:      0.036 (sys:      0.045 wall:      0.007)
 InitializeIterates.................:      4.362 (sys:      1.522 wall:      3.970)
 UpdateHessian......................:      8.738 (sys:      5.926 wall:      3.592)
 OutputIteration....................:      0.013 (sys:      0.007 wall:      0.001)
 UpdateBarrierParameter.............:      0.005 (sys:      0.002 wall:      0.001)
 ComputeSearchDirection.............:     28.698 (sys:     17.528 wall:     18.178)
 ComputeAcceptableTrialPoint........:      7.553 (sys:      6.206 wall:      2.109)
 AcceptTrialPoint...................:      0.001 (sys:      0.000 wall:      0.000)
 CheckConvergence...................:      3.434 (sys:      2.688 wall:      0.720)
PDSystemSolverTotal.................:     28.558 (sys:     17.400 wall:     18.161)
 PDSystemSolverSolveOnce............:     25.035 (sys:     14.023 wall:     17.654)
 ComputeResiduals...................:      2.777 (sys:      2.603 wall:      0.409)
 StdAugSystemSolverMultiSolve.......:     28.642 (sys:     15.183 wall:     21.055)
 LinearSystemScaling................:      0.000 (sys:      0.000 wall:      0.000)
 LinearSystemSymbolicFactorization..:      1.612 (sys:      0.124 wall:      1.737)
 LinearSystemFactorization..........:      0.000 (sys:      0.000 wall:      0.000)
 LinearSystemBackSolve..............:      8.891 (sys:      5.569 wall:      4.310)
 LinearSystemStructureConverter.....:      0.000 (sys:      0.000 wall:      0.000)
  LinearSystemStructureConverterInit:      0.000 (sys:      0.000 wall:      0.000)
QualityFunctionSearch...............:      0.000 (sys:      0.000 wall:      0.000)
TryCorrector........................:      0.000 (sys:      0.000 wall:      0.000)
Task1...............................:      0.000 (sys:      0.000 wall:      0.000)
Task2...............................:      0.000 (sys:      0.000 wall:      0.000)
Task3...............................:      0.000 (sys:      0.000 wall:      0.000)
Task4...............................:      0.000 (sys:      0.000 wall:      0.000)
Task5...............................:      0.000 (sys:      0.000 wall:      0.000)
Task6...............................:      0.000 (sys:      0.000 wall:      0.000)
Function Evaluations................:     18.257 (sys:     13.396 wall:      6.301)
 Objective function.................:      0.111 (sys:      0.079 wall:      0.021)
 Objective function gradient........:      0.114 (sys:      0.098 wall:      0.023)
 Equality constraints...............:      7.429 (sys:      6.076 wall:      2.073)
 Inequality constraints.............:      0.000 (sys:      0.000 wall:      0.000)
 Equality constraint Jacobian.......:      1.893 (sys:      1.226 wall:      0.595)
 Inequality constraint Jacobian.....:      0.000 (sys:      0.000 wall:      0.000)
 Lagrangian Hessian.................:      8.711 (sys:      5.917 wall:      3.590)

EXIT: Optimal Solution Found.
